70
1 0 9
2 1 8
3 2 5
4 1 9
4 2 3
4 3 6
5 0 1
5 1 4
6 1 2
6 3 1
7 1 6
7 2 1
7 5 6
8 2 9
8 4 9
8 6 6
9 1 2
9 2 8
9 4 8
9 5 3
9 6 3
10 1 8
10 3 5
10 4 5
10 7 6
10 8 6
10 9 3
11 4 5
11 7 6
11 8 5
11 9 2
11 10 2
12 3 4
12 6 1
12 7 5
12 8 9
12 9 8
12 10 2
12 11 2
13 1 6
13 3 9
13 4 2
13 5 7
13 6 9
13 7 3
13 9 1
13 11 7
13 12 6
14 0 6
14 1 5
14 2 3
14 3 7
14 5 4
14 7 2
14 8 3
14 11 9
15 3 1
15 10 6
15 12 3
15 13 6
15 14 9
16 0 1
16 3 4
16 4 6
16 5 4
16 6 1
16 7 1
16 8 1
16 11 4
16 13 4
16 14 4
17 0 6
17 1 2
17 2 6
17 5 6
17 6 5
17 7 9
17 10 2
17 14 6
17 15 1
17 16 5
18 1 2
18 2 2
18 3 9
18 5 6
18 6 4
18 7 8
18 8 4
18 9 2
18 10 1
18 11 2
18 15 9
18 17 4
19 3 8
19 4 3
19 7 2
19 9 6
19 10 3
19 14 9
19 17 8
20 0 2
20 2 9
20 3 8
20 9 8
20 10 8
20 12 1
20 15 8
20 19 7
21 0 3
21 3 9
21 4 7
21 5 3
21 6 5
21 10 9
21 12 3
21 14 4
21 17 1
22 0 5
22 6 5
22 8 8
22 10 2
22 11 7
22 12 2
22 13 6
22 16 6
22 18 3
22 20 8
23 7 6
23 9 2
23 10 5
23 14 1
23 16 5
23 17 9
23 22 4
24 1 3
24 3 2
24 4 5
24 8 5
24 9 2
24 10 2
24 13 3
24 15 7
24 18 2
24 19 7
24 20 8
24 22 3
24 23 1
25 0 2
25 2 1
25 3 1
25 4 8
25 6 1
25 7 7
25 8 3
25 9 4
25 10 1
25 13 5
25 19 8
25 20 4
25 21 9
25 22 7
25 23 6
25 24 4
26 1 3
26 7 1
26 8 8
26 9 6
26 11 6
26 14 5
26 15 6
26 16 8
26 17 7
26 18 7
26 22 3
26 23 6
26 24 7
26 25 5
27 0 2
27 1 7
27 2 2
27 4 6
27 5 4
27 6 8
27 9 2
27 11 4
27 12 5
27 13 6
27 14 4
27 16 4
27 18 4
27 19 1
27 20 6
27 23 3
27 25 3
27 26 9
28 2 9
28 3 6
28 6 6
28 8 6
28 9 9
28 12 4
28 13 8
28 14 6
28 18 2
28 19 6
28 20 4
28 21 9
28 22 4
28 24 7
28 25 2
28 26 7
29 1 8
29 6 4
29 9 8
29 10 1
29 11 8
29 12 5
29 13 8
29 14 3
29 15 3
29 16 3
29 17 8
29 19 4
29 20 1
29 21 4
29 22 1
29 23 9
29 24 6
29 26 8
29 27 8
30 0 8
30 3 9
30 4 1
30 5 7
30 8 4
30 9 5
30 10 5
30 13 3
30 16 3
30 17 2
30 18 2
30 21 1
30 22 3
30 24 3
30 28 1
31 1 7
31 2 2
31 3 2
31 4 2
31 5 5
31 11 2
31 14 6
31 15 4
31 18 8
31 21 5
31 22 9
31 25 2
31 28 6
32 0 5
32 2 6
32 3 7
32 6 6
32 7 2
32 9 3
32 10 6
32 13 1
32 14 5
32 21 9
32 23 4
32 24 5
32 26 5
32 27 7
32 28 1
32 30 5
33 6 5
33 8 2
33 15 4
33 16 3
33 18 8
33 20 3
33 21 1
33 22 1
33 23 9
33 24 4
33 25 7
33 27 1
33 31 8
33 32 7
34 0 9
34 1 4
34 2 2
34 3 6
34 4 9
34 12 4
34 13 1
34 14 2
34 15 3
34 18 1
34 19 6
34 20 2
34 22 1
34 23 4
34 24 7
34 25 2
34 27 9
34 30 2
34 31 2
34 32 8
34 33 9
35 2 2
35 5 4
35 7 7
35 8 1
35 12 7
35 14 5
35 15 8
35 18 6
35 19 7
35 21 7
35 24 7
35 25 9
35 26 7
35 27 4
35 30 9
35 31 5
36 1 6
36 2 2
36 3 3
36 10 6
36 11 3
36 12 9
36 13 1
36 14 7
36 15 5
36 16 7
36 19 3
36 22 1
36 23 8
36 29 2
36 33 7
36 35 4
37 0 2
37 1 8
37 3 5
37 4 8
37 6 4
37 7 8
37 8 9
37 9 8
37 10 5
37 11 7
37 12 9
37 16 9
37 18 2
37 20 6
37 22 2
37 23 3
37 24 5
37 25 8
37 26 2
37 28 2
37 31 8
37 32 6
37 34 6
38 1 9
38 2 8
38 3 5
38 5 5
38 6 5
38 7 4
38 10 8
38 13 7
38 14 7
38 15 9
38 18 7
38 20 8
38 22 3
38 23 8
38 29 4
38 30 5
38 31 7
38 34 4
38 35 7
38 36 8
38 37 6
39 1 5
39 2 3
39 4 9
39 8 8
39 9 7
39 10 1
39 12 3
39 13 9
39 14 4
39 15 3
39 18 1
39 19 3
39 26 3
39 27 9
39 29 3
39 34 9
39 38 4
40 0 2
40 1 3
40 3 9
40 4 4
40 6 6
40 7 8
40 9 5
40 10 5
40 12 6
40 14 1
40 17 6
40 18 6
40 19 8
40 21 2
40 26 8
40 28 8
40 30 5
40 32 6
40 38 4
40 39 6
41 1 4
41 3 3
41 5 4
41 8 5
41 10 7
41 13 5
41 21 1
41 22 3
41 23 2
41 26 6
41 28 7
41 29 7
41 32 4
41 37 6
41 38 7
42 1 1
42 2 4
42 6 9
42 11 1
42 23 9
42 24 9
42 25 5
42 26 5
42 30 6
42 31 8
42 32 4
42 34 4
42 35 1
42 36 7
42 37 2
42 38 7
43 0 5
43 1 3
43 3 6
43 7 5
43 8 3
43 9 7
43 10 4
43 16 9
43 17 7
43 18 3
43 19 4
43 20 5
43 23 5
43 25 3
43 27 4
43 28 5
43 29 7
43 30 8
43 32 6
43 33 4
43 35 3
43 36 3
43 37 2
43 42 3
44 1 7
44 2 6
44 4 6
44 5 8
44 6 6
44 7 6
44 8 9
44 10 4
44 11 3
44 13 3
44 15 1
44 17 4
44 20 9
44 22 5
44 23 3
44 24 7
44 26 5
44 30 5
44 32 8
44 35 8
44 37 9
44 39 8
44 40 6
44 41 6
45 1 7
45 4 9
45 6 5
45 8 1
45 9 5
45 10 2
45 11 1
45 12 8
45 13 1
45 16 6
45 22 8
45 23 5
45 25 5
45 26 9
45 27 7
45 30 1
45 31 7
45 35 9
45 36 8
45 39 8
45 40 7
45 41 5
46 3 4
46 5 1
46 6 6
46 11 1
46 12 4
46 15 3
46 16 6
46 18 7
46 19 5
46 24 9
46 25 7
46 27 7
46 30 3
46 31 8
46 34 4
46 35 6
46 37 2
46 39 4
46 40 7
46 42 8
46 43 9
46 44 2
46 45 3
47 1 5
47 2 5
47 3 9
47 4 3
47 6 1
47 8 1
47 16 4
47 19 4
47 21 8
47 22 1
47 23 8
47 28 4
47 30 6
47 36 5
47 37 3
47 42 4
47 43 4
47 44 9
47 46 4
48 0 1
48 3 4
48 9 6
48 10 4
48 14 3
48 16 7
48 18 3
48 19 8
48 20 1
48 21 2
48 22 9
48 23 6
48 25 1
48 26 6
48 27 9
48 28 3
48 30 9
48 31 8
48 32 8
48 33 2
48 34 9
48 35 5
48 36 4
48 38 6
48 39 2
48 42 9
48 43 3
48 44 8
48 45 6
48 46 3
49 1 7
49 4 8
49 7 9
49 9 4
49 10 6
49 13 5
49 14 3
49 18 1
49 22 4
49 23 7
49 25 1
49 26 8
49 28 1
49 32 7
49 33 3
49 36 1
49 37 6
49 40 6
49 41 5
49 43 9
49 44 9
49 47 2
49 48 4
50 0 6
50 5 7
50 8 2
50 11 3
50 17 5
50 19 3
50 20 3
50 22 1
50 23 9
50 25 6
50 26 8
50 27 4
50 28 1
50 29 8
50 31 7
50 32 6
50 33 1
50 42 5
50 44 6
50 46 2
50 49 8
51 0 9
51 1 2
51 2 5
51 5 2
51 6 8
51 8 5
51 11 2
51 12 2
51 13 1
51 14 1
51 15 7
51 17 2
51 18 3
51 20 2
51 21 1
51 22 8
51 33 9
51 34 4
51 37 6
51 40 5
51 41 1
51 44 2
51 45 7
51 49 9
52 2 7
52 3 5
52 4 4
52 5 5
52 8 6
52 9 8
52 10 5
52 12 9
52 13 6
52 14 5
52 15 8
52 18 8
52 24 3
52 25 4
52 30 5
52 31 3
52 32 1
52 33 4
52 36 2
52 40 1
52 41 6
52 48 2
52 49 9
52 51 7
53 3 6
53 4 3
53 6 4
53 7 5
53 8 1
53 9 2
53 12 9
53 13 8
53 14 3
53 15 8
53 16 6
53 18 8
53 19 6
53 20 4
53 21 8
53 24 8
53 25 3
53 27 1
53 28 2
53 29 6
53 35 7
53 43 5
53 44 1
53 46 8
53 47 1
53 49 1
53 50 2
54 0 8
54 1 8
54 2 6
54 5 1
54 7 6
54 9 2
54 10 7
54 11 9
54 12 8
54 15 9
54 17 4
54 18 9
54 19 4
54 20 2
54 21 5
54 24 9
54 25 4
54 26 3
54 27 4
54 29 7
54 32 2
54 35 4
54 36 1
54 40 5
54 41 9
54 45 4
54 47 4
54 52 1
54 53 9
55 0 9
55 2 7
55 4 3
55 7 9
55 8 5
55 9 2
55 10 5
55 13 6
55 14 5
55 16 7
55 17 6
55 18 2
55 19 6
55 20 9
55 22 5
55 23 8
55 28 4
55 29 4
55 30 8
55 31 7
55 32 2
55 35 3
55 41 4
55 44 5
55 46 8
55 51 2
55 52 6
55 53 8
56 6 2
56 7 7
56 17 4
56 18 8
56 19 1
56 23 6
56 24 3
56 27 2
56 28 9
56 29 6
56 31 8
56 33 5
56 35 4
56 41 2
56 44 4
56 45 9
56 46 6
56 47 5
56 50 3
56 52 1
56 54 6
56 55 4
57 0 7
57 2 5
57 3 1
57 5 2
57 6 1
57 7 3
57 8 4
57 11 7
57 15 2
57 18 5
57 19 1
57 21 6
57 23 7
57 24 9
57 27 7
57 28 2
57 31 8
57 32 5
57 33 2
57 35 9
57 36 2
57 37 8
57 39 1
57 43 5
57 44 3
57 45 2
57 48 8
57 49 1
57 51 7
57 54 5
58 2 1
58 3 6
58 5 5
58 6 9
58 7 8
58 8 3
58 12 4
58 14 7
58 17 3
58 22 1
58 23 6
58 24 6
58 26 5
58 29 1
58 31 6
58 33 3
58 34 4
58 36 1
58 37 2
58 38 4
58 42 2
58 44 8
58 45 6
58 46 3
58 49 9
58 50 8
58 53 8
58 54 1
59 1 5
59 4 4
59 5 3
59 6 5
59 7 1
59 9 5
59 11 4
59 15 6
59 17 9
59 18 4
59 20 6
59 21 2
59 22 8
59 23 1
59 25 9
59 27 9
59 28 5
59 32 8
59 37 8
59 38 5
59 39 3
59 46 5
59 47 5
59 48 7
59 51 2
59 53 8
59 55 1
59 56 5
59 58 7
60 0 8
60 1 8
60 2 7
60 3 3
60 4 8
60 5 5
60 7 9
60 10 1
60 11 7
60 13 9
60 20 2
60 23 5
60 29 8
60 33 2
60 34 1
60 35 3
60 36 4
60 37 4
60 38 4
60 39 8
60 42 8
60 44 7
60 46 1
60 47 4
60 50 4
60 51 2
60 52 7
60 53 1
60 54 6
60 58 9
61 2 5
61 3 6
61 4 4
61 5 5
61 6 1
61 9 7
61 11 7
61 13 1
61 14 5
61 16 8
61 17 2
61 18 7
61 20 2
61 22 8
61 26 2
61 31 6
61 33 5
61 34 9
61 35 1
61 36 9
61 38 1
61 39 7
61 40 2
61 41 4
61 42 7
61 43 4
61 46 8
61 48 2
61 49 7
61 50 1
61 53 4
61 54 6
61 56 3
61 57 4
61 60 5
62 0 8
62 2 8
62 4 3
62 5 9
62 6 2
62 7 2
62 8 5
62 9 3
62 10 5
62 12 7
62 15 4
62 16 2
62 19 8
62 21 6
62 22 3
62 24 4
62 27 6
62 28 4
62 29 7
62 32 9
62 34 4
62 36 2
62 39 8
62 40 3
62 41 3
62 45 9
62 49 7
62 50 3
62 51 1
62 54 2
62 55 7
62 56 9
62 57 3
62 58 8
62 59 5
62 60 2
62 61 3
63 1 9
63 5 5
63 6 8
63 9 8
63 10 9
63 11 1
63 14 7
63 20 5
63 27 7
63 29 3
63 31 6
63 32 9
63 35 3
63 37 8
63 40 9
63 41 8
63 43 9
63 45 3
63 46 5
63 47 8
63 48 7
63 49 9
63 56 5
63 59 2
63 60 2
64 1 2
64 2 9
64 4 1
64 5 9
64 6 2
64 7 1
64 13 6
64 15 8
64 18 8
64 20 4
64 23 2
64 26 9
64 27 8
64 28 6
64 29 5
64 33 1
64 37 1
64 39 3
64 43 6
64 45 1
64 48 6
64 49 3
64 50 1
64 52 4
64 53 7
64 56 2
65 2 3
65 4 9
65 7 4
65 8 5
65 10 5
65 12 1
65 15 7
65 17 7
65 20 2
65 21 9
65 22 7
65 24 2
65 25 7
65 32 1
65 34 6
65 37 2
65 39 5
65 40 5
65 41 3
65 43 1
65 44 8
65 45 2
65 47 5
65 48 6
65 54 7
65 55 4
65 57 6
65 58 1
65 60 1
65 64 7
66 0 5
66 1 8
66 3 5
66 4 4
66 6 3
66 8 3
66 9 6
66 10 2
66 12 4
66 13 6
66 14 1
66 15 5
66 18 3
66 19 5
66 20 1
66 23 6
66 25 2
66 28 4
66 29 1
66 31 1
66 32 5
66 33 7
66 35 8
66 37 3
66 42 2
66 43 2
66 46 7
66 50 4
66 52 4
66 54 3
66 55 9
66 57 9
66 59 1
66 61 3
66 65 2
67 0 6
67 3 6
67 6 6
67 7 2
67 8 5
67 9 6
67 10 5
67 13 5
67 14 4
67 15 8
67 18 9
67 20 3
67 21 4
67 22 5
67 25 5
67 26 7
67 27 6
67 30 5
67 34 1
67 36 8
67 37 2
67 38 9
67 39 3
67 43 8
67 45 4
67 47 6
67 48 9
67 50 7
67 52 4
67 55 6
67 57 5
67 58 2
67 60 8
67 61 4
67 62 1
67 63 4
67 66 2
68 0 9
68 2 5
68 3 7
68 5 8
68 6 8
68 7 7
68 9 6
68 10 1
68 11 9
68 12 5
68 14 1
68 22 9
68 25 8
68 26 2
68 28 9
68 38 1
68 39 6
68 40 3
68 42 1
68 43 4
68 44 9
68 47 5
68 48 6
68 49 3
68 50 4
68 53 1
68 54 3
68 58 2
68 59 9
68 67 5
69 0 9
69 2 8
69 11 7
69 13 6
69 14 2
69 17 2
69 18 5
69 20 5
69 22 8
69 25 7
69 29 7
69 30 2
69 31 2
69 32 3
69 35 5
69 39 6
69 42 8
69 44 7
69 46 3
69 49 5
69 51 3
69 53 2
69 57 3
69 62 8
69 64 7
69 67 1
69 68 5
